language Essence 1.3

letting class be function(1 --> 1, 2 --> 1, 3 --> 1)
letting deck_length be 19
letting deck_width be 88
letting length be function(1 --> 1, 2 --> 12, 3 --> 7)
letting n_classes be 1
letting n_containers be 3
letting separation be function()
letting width be function(1 --> 31, 2 --> 42, 3 --> 81)
